src/thirdparties/MolGAN/constraints/inputToTypeAtom.txt
shape [10, 5]
Equivalent(X.0.1, Or(X.1.1,X.2.1,X.3.1,X.4.1,X.5.1,X.6.1,X.7.1,X.8.1,X.9.1))
Equivalent(X.0.2, Or(X.1.2,X.2.2,X.3.2,X.4.2,X.5.2,X.6.2,X.7.2,X.8.2,X.9.2))
Equivalent(X.0.3, Or(X.1.3,X.2.3,X.3.3,X.4.3,X.5.3,X.6.3,X.7.3,X.8.3,X.9.3))
Equivalent(X.0.4, Or(X.1.4,X.2.4,X.3.4,X.4.4,X.5.4,X.6.4,X.7.4,X.8.4,X.9.4))
